<number of tasks>
100

<cycle time>
1000

<order strength>
0.605


<task times>
1 651
2 443
3 545
4 633
5 645
6 308
7 327
8 497
9 635
10 320
11 405
12 562
13 393
14 448
15 393
16 465
17 773
18 343
19 464
20 539
21 579
22 421
23 528
24 336
25 604
26 556
27 315
28 421
29 433
30 413
31 453
32 442
33 615
34 348
35 685
36 505
37 425
38 516
39 514
40 473
41 400
42 368
43 463
44 455
45 609
46 284
47 548
48 456
49 307
50 585
51 520
52 496
53 383
54 596
55 401
56 565
57 523
58 577
59 426
60 540
61 402
62 364
63 382
64 332
65 381
66 306
67 508
68 560
69 415
70 600
71 579
72 585
73 746
74 502
75 367
76 479
77 411
78 369
79 370
80 631
81 572
82 479
83 661
84 622
85 610
86 577
87 269
88 192
89 407
90 359
91 638
92 531
93 554
94 443
95 454
96 518
97 709
98 539
99 264
100 566

<precedence relations>
1,73
2,23
3,23
4,23
5,6
5,7
5,8
5,9
5,10
6,47
7,47
8,11
8,15
8,18
8,25
8,27
8,35
9,12
9,13
9,14
9,16
10,17
11,88
12,47
13,70
14,23
14,37
14,39
15,19
16,18
16,20
16,21
16,22
17,22
18,23
19,23
20,88
21,47
22,24
22,25
22,26
22,27
22,28
22,44
23,29
23,30
23,31
23,32
23,33
23,34
23,36
24,88
25,47
26,70
27,34
27,40
27,41
27,49
27,51
28,35
28,43
28,48
29,88
30,47
31,47
32,47
33,38
33,40
33,42
33,43
33,44
34,47
35,37
35,38
35,39
35,40
35,41
36,41
37,73
38,88
39,47
40,47
41,47
42,45
42,48
42,49
42,64
42,67
43,45
43,46
43,47
44,69
45,73
46,88
47,50
47,52
47,53
47,54
47,55
47,56
47,57
47,58
47,59
47,60
48,51
48,65
48,66
48,68
48,69
49,66
50,73
51,88
52,88
53,64
53,65
53,69
54,61
54,63
55,67
55,71
56,61
56,67
57,61
57,66
57,67
58,64
58,67
58,78
59,61
59,67
60,62
61,70
62,65
62,66
62,68
63,67
64,66
65,70
66,71
66,72
67,68
67,69
67,79
68,73
69,88
70,73
70,74
70,75
70,76
70,77
70,78
70,79
71,79
71,99
72,99
73,80
73,81
73,82
73,83
73,84
73,85
73,86
73,87
74,87
75,100
76,100
77,87
77,100
78,87
80,88
84,99
84,100
85,100
87,89
87,90
88,91
88,92
88,93
88,94
88,95
88,96
88,97
88,98
89,99
94,100
96,99
96,100

<end>
